9
0, 830, 216, 856, 201, 1065, 900, 804, 983
830, 0, 621, 365, 737, 918, 70, 275, 156
216, 621, 0, 647, 155, 921, 690, 590, 771
856, 365, 647, 0, 692, 557, 373, 96, 381
201, 737, 155, 692, 0, 863, 803, 654, 879
1065, 918, 921, 557, 863, 0, 931, 643, 933
900, 70, 690, 373, 803, 931, 0, 293, 87
804, 275, 590, 96, 654, 643, 293, 0, 317
983, 156, 771, 381, 879, 933, 87, 317, 0
